% Generado automaticamente desde C:/Users/andres/Desktop/SEPTIMO SEMESTRE/ADAII/proyecto_final/Proyecto-Optimizacion-ADA2/BateriaPruebas_2025_2_P2/Prueba28.txt

n = 500;
m = 3;
ct = 250.0;
maxMovs = 350.0;
v = [0.346, 0.666, 0.875];
p = [206, 28, 266];
s = [| 129, 27, 50 | 8, 10, 10 | 101, 47, 118 |];
